letting initialStacks = [38, 48, 2, 29, 7, 19, 30, 49, 8, 31, 14, 22, 28, 23, 43, 13, 9, 16, 26, 39, 35, 4, 33, 44, 41, 24, 37, 34, 12, 18, 51, 5, 40, 15, 25, 17, 36, 20, 27, 3, 10, 6, 45, 47, 1, 21, 42, 50, 46, 11, 32]
